c File: instances/20_0.35_1.col
c
c Description: Random graph of size 20 vertices and P(0.35) of edges between any two vertices.
p col 20 190
e 1 4
e 1 8
e 1 11
e 1 14
e 1 16
e 1 18
e 2 4
e 2 6
e 2 9
e 2 13
e 2 14
e 2 16
e 2 17
e 2 18
e 2 19
e 3 7
e 3 8
e 3 9
e 3 12
e 3 13
e 3 15
e 3 20
e 4 10
e 4 14
e 4 15
e 4 17
e 4 18
e 4 19
e 5 6
e 5 9
e 5 16
e 6 8
e 6 9
e 6 15
e 6 17
e 6 18
e 6 20
e 7 9
e 7 13
e 7 15
e 7 19
e 7 20
e 8 10
e 8 15
e 8 16
e 8 19
e 8 20
e 9 11
e 9 12
e 9 18
e 10 15
e 10 17
e 11 14
e 11 15
e 11 19
e 11 20
e 12 14
e 12 15
e 12 18
e 13 14
e 13 16
e 13 17
e 16 17
e 16 19
e 17 18
e 18 19
e 19 20